702 5
10 10 10 10 10 

0 0 0 0 0 0 5 2 14 66 118 170 
0 0 0 0 0 0 4 3 4 5 7 
9 0 0 2 0 0 1 6 
10 0 0 7 0 0 2 6 658 
1 0 0 4 0 0 1 6 
3 0 0 6 0 0 3 10 9 8 
9 0 0 5 0 0 2 9 8 
4 0 0 3 0 0 1 11 
2 0 0 8 0 0 1 11 
5 0 0 1 0 0 1 11 
2 0 0 10 0 0 1 12 
7 0 0 4 0 0 1 13 
0 0 0 0 0 0 5 222 264 306 348 360 
0 0 0 0 0 0 4 15 16 17 18 
1 1 3 1 1 1 4 26 21 20 19 
2 6 3 8 6 9 4 26 21 20 19 
8 9 5 7 8 5 3 26 21 19 
1 6 3 3 8 3 1 19 
6 5 3 3 4 7 3 24 23 22 
2 5 9 9 4 5 3 24 23 22 
3 8 6 4 4 5 3 29 23 333 
4 4 2 3 5 4 2 29 25 
6 5 6 5 6 5 1 25 
9 3 2 8 2 10 1 25 
5 8 4 4 4 3 2 28 27 
6 8 3 2 5 2 2 29 27 
5 6 3 7 5 5 3 34 31 30 
3 4 5 6 7 5 2 31 30 
9 4 7 5 7 3 2 34 32 
3 7 9 2 9 4 1 32 
10 6 4 5 7 5 1 32 
5 3 10 8 9 4 3 41 38 33 
9 5 4 6 3 3 3 37 36 35 
2 5 6 4 5 3 3 41 36 35 
2 7 4 6 5 5 1 39 
5 1 5 7 5 8 1 39 
9 3 6 4 4 7 1 39 
5 4 6 4 5 6 1 39 
7 3 9 3 5 5 1 40 
10 3 3 4 3 4 1 42 
8 3 8 7 5 5 1 42 
4 4 3 7 7 10 2 45 43 
9 5 6 6 5 10 2 48 44 
1 4 2 1 3 3 2 47 46 
7 6 5 3 6 5 1 46 
2 4 6 5 5 4 2 50 49 
4 4 4 3 5 5 1 49 
2 8 5 8 2 5 1 49 
5 1 4 5 2 4 3 55 52 51 
7 7 2 3 6 3 3 55 52 51 
1 7 3 5 9 3 1 53 
8 4 4 4 3 5 1 53 
8 6 5 4 5 7 1 54 
6 5 4 7 5 8 1 56 
3 5 7 3 2 10 1 56 
3 5 6 8 3 2 1 57 
9 7 6 6 5 3 2 60 58 
7 3 3 6 3 5 1 59 
5 6 8 5 8 2 2 62 61 
3 3 9 4 6 5 1 61 
4 7 9 6 7 9 2 64 63 
3 6 3 3 4 2 2 64 63 
8 4 6 4 4 4 1 65 
6 7 2 9 4 5 1 65 
0 0 0 0 0 0 1 702 
0 0 0 0 0 0 4 67 68 69 70 
8 1 3 2 2 1 5 78 74 73 72 71 
5 1 3 2 6 6 4 78 73 72 71 
6 8 3 4 4 5 2 74 71 
2 5 6 5 4 8 3 77 75 74 
8 7 2 7 5 5 3 79 77 75 
9 7 6 5 10 7 2 79 76 
6 8 7 9 8 3 1 75 
4 8 6 3 3 3 4 84 83 80 79 
8 5 3 4 9 8 1 76 
4 1 6 4 8 7 4 86 84 83 80 
2 8 4 5 3 6 4 86 84 83 81 
1 2 4 7 4 4 3 83 81 79 
5 4 6 6 6 6 2 86 82 
7 8 4 8 5 7 1 81 
5 5 5 10 4 5 1 82 
7 4 7 4 7 6 3 93 91 85 
2 5 5 7 4 2 3 93 91 85 
7 6 6 5 1 3 2 91 85 
3 6 2 6 4 6 3 89 88 87 
6 3 5 7 3 5 2 88 87 
7 2 2 4 7 4 1 90 
6 6 3 4 7 3 1 90 
5 3 2 4 3 3 1 90 
10 5 2 2 3 6 1 92 
5 4 5 4 2 2 1 92 
1 6 5 6 3 7 1 94 
3 4 3 10 3 2 1 94 
8 5 5 4 5 7 3 99 97 95 
6 8 3 6 3 8 2 96 166 
7 7 5 2 8 3 2 102 98 
10 5 4 5 4 4 1 98 
3 5 5 4 4 9 2 101 100 
1 4 7 7 6 4 1 100 
6 5 4 5 5 5 3 107 104 103 
10 5 7 5 8 7 3 107 104 103 
6 5 4 5 4 4 1 103 
6 5 5 4 3 4 1 105 
3 5 7 5 3 9 1 105 
8 7 5 2 2 6 1 106 
6 5 6 5 5 5 1 108 
3 4 10 6 8 8 1 108 
3 2 3 4 2 3 1 109 
4 5 6 8 6 4 2 112 110 
7 3 5 2 7 3 2 113 111 
6 4 5 4 7 2 2 116 114 
7 7 7 5 2 4 2 116 114 
9 5 9 2 9 5 2 116 115 
8 6 5 4 10 3 1 115 
1 5 10 5 4 8 1 117 
4 6 8 7 7 5 1 117 
0 0 0 0 0 0 1 702 
0 0 0 0 0 0 4 119 120 121 123 
10 2 1 1 1 1 5 132 129 128 127 124 
10 3 7 4 6 6 2 127 122 
5 1 3 4 5 4 1 122 
8 4 4 8 6 7 3 134 132 125 
2 7 7 8 4 5 2 134 125 
5 7 4 8 4 1 1 125 
2 5 5 6 7 3 1 126 
8 5 5 7 5 3 4 138 137 135 130 
9 7 3 4 7 5 4 137 135 134 130 
10 7 4 3 5 6 3 137 134 133 
9 5 6 3 5 10 2 137 131 
4 7 1 2 3 7 1 131 
10 10 7 4 6 6 1 133 
3 4 6 6 5 3 1 133 
8 2 4 4 7 7 4 145 144 140 136 
6 5 5 5 4 5 2 140 136 
9 4 6 5 6 3 3 144 140 139 
9 10 6 6 5 3 2 141 139 
10 4 8 4 6 7 1 140 
7 3 2 5 8 5 1 139 
3 10 6 7 5 5 1 142 
8 5 6 4 9 3 1 142 
1 5 5 5 4 2 1 142 
1 3 5 2 7 8 1 143 
1 8 5 5 4 5 1 146 
3 2 4 6 2 7 1 146 
2 6 6 7 4 8 1 146 
1 7 3 4 8 4 3 151 149 147 
8 3 5 4 6 8 1 148 
7 5 4 5 4 7 3 155 153 150 
2 7 7 6 7 7 2 153 150 
5 4 6 6 5 8 2 157 152 
9 6 5 5 2 2 2 157 153 
5 5 5 9 4 3 2 159 154 
6 1 3 2 4 5 1 154 
3 3 10 3 6 3 1 156 
6 8 7 6 8 3 1 157 
8 6 7 7 3 3 1 158 
4 5 8 2 5 4 1 158 
3 8 5 4 5 3 1 160 
3 5 6 7 3 4 1 160 
6 3 4 9 5 7 1 161 
5 3 5 5 2 5 2 164 162 
9 3 1 6 8 4 2 165 163 
4 3 7 7 3 9 2 168 166 
3 4 6 6 5 3 2 168 166 
5 5 1 4 3 2 2 168 167 
9 5 3 5 5 10 2 167 310 
2 3 8 3 4 7 1 169 
7 7 3 2 5 4 1 169 
0 0 0 0 0 0 1 702 
0 0 0 0 0 0 4 171 172 173 175 
4 2 1 1 4 1 5 184 181 180 179 176 
2 3 2 8 3 4 2 179 174 
10 3 5 5 2 5 1 174 
4 4 3 6 5 5 3 186 184 177 
2 2 5 4 4 5 3 186 184 177 
6 7 4 5 7 1 1 177 
10 4 6 6 2 7 1 178 
4 6 9 4 4 6 4 190 189 187 182 
7 5 5 6 4 6 4 189 187 186 182 
9 2 10 6 9 4 4 190 189 186 185 
3 6 3 6 7 4 3 189 183 319 
3 4 4 5 3 6 1 183 
8 7 5 6 4 5 1 185 
7 5 5 6 3 7 1 185 
6 9 4 5 8 2 4 197 195 192 188 
9 5 5 3 5 5 3 195 192 188 
7 2 2 3 10 6 3 197 192 191 
7 5 4 4 3 4 2 193 191 
4 4 6 5 2 3 1 192 
6 3 8 9 3 7 1 191 
3 4 5 3 5 5 1 194 
1 5 4 6 5 6 1 194 
6 5 3 5 3 5 1 194 
10 3 2 9 4 4 1 196 
5 6 5 6 10 6 1 196 
9 4 8 4 10 4 1 198 
2 5 7 7 4 4 1 198 
4 4 5 3 9 2 3 203 201 199 
7 9 6 3 4 6 1 200 
9 7 4 2 9 8 3 207 204 202 
8 8 4 8 8 5 2 204 202 
4 6 7 6 4 5 2 209 205 
6 10 6 6 4 5 2 209 204 
9 5 3 6 3 3 2 211 206 
2 4 5 8 2 5 2 211 206 
4 5 5 6 3 6 1 208 
1 5 4 7 7 8 1 209 
9 6 2 6 5 6 1 210 
6 8 4 5 5 8 1 210 
4 7 8 1 3 6 1 212 
10 4 4 2 5 2 1 212 
2 3 4 2 4 4 1 213 
2 5 6 6 3 4 2 216 214 
5 4 7 4 10 4 2 217 215 
3 2 9 5 4 7 2 220 218 
2 7 6 4 5 6 2 220 218 
1 3 3 3 6 4 2 220 219 
1 8 5 4 5 6 1 219 
6 6 9 4 5 6 1 221 
6 4 4 6 4 7 1 221 
0 0 0 0 0 0 1 702 
0 0 0 0 0 0 2 223 225 
8 1 1 0 1 1 2 224 576 
8 7 4 0 9 3 2 227 226 
8 5 7 0 2 3 2 227 226 
7 5 9 0 6 6 4 238 231 230 229 
2 7 7 0 7 5 3 231 230 228 
6 3 4 0 4 7 1 229 
10 7 6 0 2 6 3 234 233 232 
4 3 3 0 7 2 2 235 233 
8 3 7 0 9 4 2 235 233 
8 5 5 0 2 5 2 239 235 
10 8 7 0 7 7 2 239 236 
1 9 5 0 7 7 2 239 236 
10 7 6 0 6 3 1 236 
5 4 4 0 4 3 1 237 
10 8 4 0 8 2 3 244 241 240 
2 6 2 0 2 7 2 244 239 
6 5 2 0 5 5 2 243 242 
4 5 8 0 6 6 3 247 245 243 
1 6 9 0 5 6 1 242 
8 2 4 0 1 3 3 248 247 245 
2 2 9 0 8 8 3 252 249 248 
5 7 8 0 7 4 3 251 249 247 
7 7 7 0 5 6 1 246 
4 3 2 0 5 6 2 251 249 
5 5 3 0 3 6 3 254 252 250 
2 3 2 0 2 8 2 253 251 
6 7 3 0 4 6 1 250 
6 4 8 0 8 7 2 255 253 
7 2 8 0 9 3 1 254 
4 4 6 0 4 9 1 253 
9 4 3 0 5 5 2 257 256 
9 5 5 0 5 5 2 257 255 
8 2 4 0 7 5 2 260 258 
5 6 3 0 5 3 2 260 258 
7 7 5 0 6 5 3 262 260 259 
5 6 3 0 2 5 2 262 259 
7 5 4 0 2 4 1 261 
8 7 7 0 3 5 1 261 
7 4 4 0 4 3 1 263 
5 4 2 0 6 6 1 263 
0 0 0 0 0 0 1 702 
0 0 0 0 0 0 2 265 268 
8 0 1 3 1 1 1 266 
5 0 3 4 6 3 2 269 267 
8 0 3 3 7 6 4 283 276 274 270 
9 0 9 9 6 6 3 283 274 271 
4 0 2 4 3 6 4 290 283 275 272 
6 0 9 1 4 4 1 271 
4 0 8 8 7 7 2 275 272 
8 0 7 4 6 6 2 285 273 
5 0 2 6 9 5 2 289 277 
1 0 5 5 6 8 1 275 
9 0 5 10 4 9 4 289 287 281 278 
2 0 10 4 3 2 5 294 289 287 281 279 
9 0 7 5 8 5 3 287 281 278 
9 0 8 10 4 5 2 294 279 
4 0 7 6 5 3 1 280 
2 0 8 2 7 6 4 304 299 292 282 
5 0 5 4 3 5 2 292 282 
5 0 7 6 7 8 2 303 284 
2 0 6 5 3 5 2 289 288 
2 0 2 6 5 10 2 297 286 
4 0 2 3 3 6 2 296 289 
5 0 6 2 4 5 1 288 
4 0 7 6 5 3 1 288 
6 0 5 3 3 5 1 291 
7 0 5 7 5 4 3 302 297 295 
1 0 4 3 6 4 3 302 297 295 
1 0 7 5 4 4 2 301 293 
2 0 7 6 7 8 2 297 295 
6 0 6 5 4 7 2 302 296 
2 0 3 6 6 2 1 296 
6 0 3 4 3 5 2 301 300 
10 0 3 5 6 4 1 298 
6 0 4 6 4 5 1 298 
4 0 5 3 2 6 1 300 
7 0 2 4 7 5 1 301 
7 0 4 6 3 4 1 305 
4 0 4 7 5 3 2 305 353 
2 0 1 5 6 3 1 305 
10 0 4 3 8 4 1 305 
4 0 4 6 5 3 1 305 
0 0 0 0 0 0 1 702 
0 0 0 0 0 0 2 307 308 
10 3 0 1 1 1 1 309 
1 2 0 6 3 5 1 309 
3 9 0 7 6 4 2 311 310 
9 5 0 2 5 6 4 316 315 314 312 
9 4 0 3 2 7 4 316 315 314 313 
6 2 0 9 3 2 1 313 
10 4 0 5 8 5 3 319 318 317 
8 9 0 3 5 4 3 319 318 317 
5 4 0 2 5 3 3 319 318 317 
1 6 0 7 6 10 1 317 
5 7 0 5 3 9 2 323 320 
7 4 0 5 7 4 3 323 320 574 
5 5 0 7 6 4 2 323 320 
5 4 0 3 5 5 1 321 
3 4 0 6 8 8 1 322 
6 7 0 5 6 4 2 325 324 
7 4 0 7 6 5 1 324 
4 5 0 6 5 4 3 328 327 326 
5 5 0 6 3 3 2 328 327 
4 10 0 7 4 7 3 332 331 329 
9 7 0 3 9 6 2 332 329 
1 7 0 3 5 7 3 334 331 330 
2 1 0 3 6 5 1 330 
10 3 0 5 6 1 2 336 333 
8 3 0 2 3 4 2 336 335 
2 6 0 6 3 4 1 334 
7 3 0 4 1 2 2 337 335 
1 8 0 6 7 5 2 337 335 
3 3 0 7 4 4 1 338 
2 5 0 4 5 8 1 337 
8 4 0 6 3 3 3 341 340 339 
10 4 0 7 4 5 3 341 340 339 
2 6 0 5 4 5 2 343 342 
4 4 0 5 3 8 2 343 342 
4 7 0 7 5 5 2 343 342 
1 5 0 6 7 4 2 346 344 
10 6 0 4 7 3 2 346 345 
9 6 0 5 7 7 1 345 
8 5 0 4 8 6 1 347 
6 4 0 6 6 8 1 347 
0 0 0 0 0 0 1 702 
0 0 0 0 0 0 3 349 350 352 
8 0 0 0 1 0 3 355 353 351 
5 0 0 0 5 0 3 355 353 351 
1 0 0 0 6 0 2 357 354 
4 0 0 0 5 0 2 356 355 
10 0 0 0 5 0 1 354 
2 0 0 0 7 0 1 356 
2 0 0 0 5 0 2 357 403 
5 0 0 0 3 0 1 358 
6 0 0 0 6 0 1 358 
4 0 0 0 7 0 1 359 
0 0 0 0 0 0 5 402 414 446 478 510 
0 0 0 0 0 0 2 361 365 
9 1 4 0 2 1 1 362 
3 2 3 0 5 7 2 364 363 
4 5 2 0 5 8 4 382 371 369 367 
3 6 4 0 3 7 3 371 369 366 
5 7 4 0 3 5 2 369 367 
3 9 6 0 6 2 1 367 
4 7 6 0 5 5 3 374 373 368 
10 8 10 0 3 6 2 383 370 
1 6 4 0 5 6 2 383 373 
2 7 6 0 2 7 1 372 
8 4 3 0 7 2 1 372 
4 5 3 0 7 8 3 384 381 375 
7 7 5 0 5 5 3 384 381 375 
8 3 5 0 3 6 4 384 381 378 376 
1 3 5 0 7 7 2 378 376 
9 6 3 0 7 6 2 385 377 
3 7 3 0 3 2 3 400 388 379 
2 1 4 0 3 4 2 388 379 
6 4 6 0 5 5 2 391 380 
4 9 6 0 4 3 4 399 393 392 386 
10 4 5 0 7 6 4 400 399 392 386 
10 3 5 0 6 4 2 399 384 
2 5 8 0 6 7 1 384 
8 7 5 0 2 4 2 390 388 
7 6 2 0 3 4 2 392 389 
2 7 4 0 6 6 1 387 
3 4 3 0 5 4 1 389 
4 5 5 0 6 7 3 398 393 392 
4 3 5 0 6 3 2 397 390 
1 3 3 0 6 5 2 398 394 
6 5 8 0 10 4 3 398 397 396 
10 3 4 0 6 5 3 397 395 659 
3 4 3 0 7 6 2 397 395 
7 9 10 0 3 3 1 395 
6 3 6 0 7 7 1 396 
1 3 8 0 2 4 1 401 
8 4 7 0 4 5 1 401 
6 7 7 0 7 3 1 401 
1 4 6 0 8 7 1 401 
7 4 4 0 3 4 1 401 
0 0 0 0 0 0 1 702 
0 0 0 0 0 0 3 403 404 406 
5 0 0 1 0 0 2 412 405 
3 0 0 4 0 0 2 409 405 
4 0 0 6 0 0 2 408 407 
1 0 0 6 0 0 2 409 407 
4 0 0 4 0 0 1 410 
3 0 0 8 0 0 1 410 
1 0 0 7 0 0 1 410 
10 0 0 6 0 0 1 411 
8 0 0 3 0 0 2 413 609 
10 0 0 5 0 0 1 413 
0 0 0 0 0 0 5 542 564 586 598 620 
0 0 0 0 0 0 3 415 416 444 
8 1 1 0 2 0 2 443 417 
10 7 6 0 5 0 2 443 417 
9 2 3 0 4 0 2 421 418 
3 2 6 0 6 0 3 426 419 447 
10 7 9 0 4 0 2 442 420 
6 6 8 0 10 0 2 436 422 
5 4 7 0 9 0 3 428 426 423 
7 5 5 0 6 0 2 428 423 
9 1 4 0 8 0 2 435 424 
3 2 4 0 5 0 2 432 425 
10 3 3 0 5 0 1 427 
9 4 6 0 5 0 1 427 
5 6 8 0 4 0 2 441 429 
10 4 4 0 5 0 4 441 440 434 431 
10 5 5 0 4 0 1 430 
3 8 6 0 5 0 3 440 434 431 
3 8 4 0 3 0 3 439 438 433 
8 4 9 0 6 0 1 433 
10 4 3 0 1 0 1 437 
3 4 4 0 2 0 1 438 
6 5 3 0 8 0 1 441 
10 8 4 0 2 0 1 437 
4 7 5 0 6 0 1 445 
10 4 5 0 6 0 1 445 
1 6 2 0 5 0 1 445 
2 4 6 0 8 0 1 445 
3 10 3 0 4 0 1 445 
1 4 5 0 7 0 1 445 
4 5 9 0 1 0 1 445 
3 10 3 0 4 0 1 445 
0 0 0 0 0 0 1 702 
0 0 0 0 0 0 3 447 448 476 
10 1 0 1 0 1 2 475 449 
9 6 0 3 0 9 2 475 449 
7 5 0 3 0 5 2 454 450 
1 5 0 9 0 1 2 459 451 
9 4 0 4 0 6 3 474 468 452 
9 9 0 4 0 5 1 453 
1 10 0 3 0 6 2 462 455 
10 3 0 5 0 6 5 467 464 462 459 457 
9 5 0 4 0 5 2 467 456 
4 7 0 4 0 3 2 464 457 
8 2 0 2 0 6 1 458 
4 5 0 6 0 1 2 473 460 
10 4 0 5 0 5 1 460 
4 5 0 6 0 4 1 461 
9 4 0 8 0 6 3 472 466 463 
6 3 0 4 0 7 2 472 463 
9 3 0 8 0 7 3 471 470 465 
8 5 0 4 0 3 1 465 
8 5 0 6 0 5 1 469 
7 9 0 7 0 7 1 470 
5 3 0 6 0 6 1 473 
9 4 0 6 0 4 1 469 
9 8 0 3 0 5 1 477 
1 8 0 6 0 7 1 477 
7 5 0 2 0 9 1 477 
4 5 0 8 0 4 1 477 
8 1 0 9 0 5 1 477 
3 4 0 6 0 4 1 477 
1 4 0 5 0 4 1 477 
4 8 0 3 0 4 1 477 
0 0 0 0 0 0 1 702 
0 0 0 0 0 0 3 479 480 508 
5 0 5 1 2 0 2 507 481 
4 0 3 5 2 0 2 507 481 
3 0 4 3 7 0 2 485 482 
9 0 3 5 10 0 2 489 483 
7 0 4 4 3 0 2 506 484 
10 0 4 4 5 0 2 496 486 
8 0 7 2 7 0 3 492 489 487 
1 0 4 6 6 0 2 492 487 
4 0 6 8 4 0 2 500 488 
5 0 9 4 2 0 2 497 490 
9 0 2 6 5 0 2 500 490 
1 0 7 7 6 0 1 491 
7 0 6 5 5 0 2 505 493 
7 0 6 1 6 0 2 505 494 
4 0 4 10 6 0 1 494 
5 0 2 3 5 0 3 503 499 495 
7 0 6 7 6 0 3 504 502 498 
4 0 4 3 6 0 2 503 498 
6 0 4 10 4 0 1 498 
7 0 5 4 7 0 1 501 
2 0 4 7 6 0 1 502 
9 0 3 7 8 0 1 505 
3 0 8 8 3 0 1 509 
10 0 5 5 5 0 1 509 
1 0 9 4 1 0 1 509 
10 0 4 1 6 0 1 509 
9 0 3 9 4 0 1 509 
3 0 10 4 5 0 1 509 
6 0 2 3 6 0 1 509 
8 0 7 4 2 0 1 509 
0 0 0 0 0 0 1 702 
0 0 0 0 0 0 3 511 512 517 
6 0 1 2 1 0 2 522 513 
2 0 4 3 2 0 2 522 513 
5 0 4 7 5 0 2 518 514 
10 0 6 1 5 0 2 520 515 
7 0 8 6 3 0 1 516 
2 0 6 3 3 0 3 526 525 519 
6 0 4 5 5 0 2 522 521 
1 0 7 6 4 0 1 520 
3 0 8 3 6 0 1 521 
1 0 3 3 3 0 1 521 
3 0 3 4 7 0 3 532 529 523 
8 0 3 4 4 0 2 525 523 
5 0 6 5 5 0 1 524 
7 0 3 5 4 0 2 533 527 
2 0 5 7 10 0 1 527 
2 0 5 3 7 0 1 527 
6 0 3 10 8 0 1 528 
9 0 8 7 3 0 2 540 530 
6 0 4 6 8 0 2 540 530 
8 0 7 9 4 0 2 535 531 
10 0 5 7 2 0 4 539 538 537 534 
3 0 7 4 4 0 3 540 538 536 
1 0 7 7 6 0 2 537 534 
10 0 6 3 8 0 1 536 
10 0 2 6 5 0 1 537 
5 0 5 3 3 0 1 541 
7 0 7 4 8 0 1 541 
2 0 5 6 5 0 1 541 
7 0 4 5 5 0 1 541 
10 0 4 6 7 0 1 541 
0 0 0 0 0 0 1 702 
0 0 0 0 0 0 2 543 545 
3 0 0 0 1 1 2 549 544 
5 0 0 0 5 3 2 553 546 
7 0 0 0 4 6 2 553 546 
4 0 0 0 7 5 3 562 557 547 
5 0 0 0 9 9 3 556 550 548 
4 0 0 0 5 5 3 561 559 551 
2 0 0 0 5 8 3 560 559 552 
2 0 0 0 2 5 2 559 554 
9 0 0 0 6 4 1 552 
3 0 0 0 5 2 1 554 
2 0 0 0 9 6 2 560 559 
4 0 0 0 2 5 1 555 
8 0 0 0 4 4 1 558 
10 0 0 0 3 6 1 561 
2 0 0 0 7 7 1 560 
10 0 0 0 8 6 1 563 
9 0 0 0 4 4 1 563 
4 0 0 0 4 6 1 563 
1 0 0 0 7 5 1 563 
8 0 0 0 3 3 1 563 
0 0 0 0 0 0 1 702 
0 0 0 0 0 0 1 565 
6 0 1 0 0 1 1 566 
1 0 4 0 0 5 3 571 568 567 
10 0 6 0 0 6 1 569 
6 0 4 0 0 5 1 569 
6 0 10 0 0 7 2 579 570 
4 0 3 0 0 4 5 584 576 574 573 572 
1 0 4 0 0 4 3 584 574 573 
2 0 4 0 0 4 1 575 
6 0 4 0 0 6 2 583 577 
4 0 2 0 0 7 2 583 577 
2 0 8 0 0 3 2 583 577 
1 0 3 0 0 4 2 583 577 
1 0 6 0 0 5 2 580 578 
5 0 5 0 0 8 2 582 581 
10 0 4 0 0 6 2 584 580 
6 0 9 0 0 7 1 585 
9 0 6 0 0 5 1 585 
1 0 7 0 0 7 1 585 
6 0 7 0 0 4 1 585 
10 0 3 0 0 2 1 585 
0 0 0 0 0 0 1 702 
0 0 0 0 0 0 3 587 589 590 
1 1 0 0 0 0 2 596 588 
1 1 0 0 0 0 2 592 591 
2 7 0 0 0 0 2 596 591 
3 5 0 0 0 0 2 595 592 
1 4 0 0 0 0 2 595 594 
8 6 0 0 0 0 1 593 
9 9 0 0 0 0 1 594 
6 3 0 0 0 0 1 597 
9 6 0 0 0 0 1 597 
10 8 0 0 0 0 1 597 
0 0 0 0 0 0 5 642 654 666 678 690 
0 0 0 0 0 0 7 599 613 614 615 616 617 618 
10 0 0 1 0 1 2 612 600 
1 0 0 6 0 10 2 611 601 
5 0 0 5 0 3 2 610 602 
4 0 0 4 0 4 1 603 
6 0 0 5 0 5 2 609 604 
7 0 0 8 0 3 1 605 
2 0 0 3 0 1 1 606 
4 0 0 8 0 10 1 607 
10 0 0 5 0 7 1 608 
5 0 0 7 0 5 1 619 
2 0 0 5 0 5 1 619 
7 0 0 4 0 8 1 619 
2 0 0 3 0 5 1 619 
10 0 0 4 0 4 1 619 
9 0 0 3 0 3 1 619 
9 0 0 4 0 7 1 619 
1 0 0 6 0 5 1 619 
8 0 0 6 0 3 1 619 
7 0 0 7 0 6 1 619 
5 0 0 6 0 5 1 619 
0 0 0 0 0 0 1 702 
0 0 0 0 0 0 2 621 640 
7 1 0 0 1 0 1 622 
1 9 0 0 4 0 2 639 623 
10 6 0 0 5 0 2 631 624 
1 2 0 0 7 0 3 638 629 625 
8 6 0 0 5 0 2 636 626 
9 4 0 0 6 0 1 627 
6 4 0 0 3 0 3 635 634 628 
7 6 0 0 5 0 2 633 630 
6 6 0 0 10 0 2 633 630 
8 9 0 0 2 0 1 632 
4 4 0 0 6 0 1 637 
7 3 0 0 7 0 1 641 
6 3 0 0 3 0 1 641 
4 6 0 0 3 0 1 641 
10 5 0 0 3 0 1 641 
4 5 0 0 5 0 1 641 
7 6 0 0 6 0 1 641 
10 4 0 0 8 0 1 641 
10 7 0 0 4 0 1 641 
9 4 0 0 7 0 1 641 
0 0 0 0 0 0 1 702 
0 0 0 0 0 0 3 643 647 652 
9 1 0 0 0 0 2 645 644 
4 2 0 0 0 0 2 649 646 
8 5 0 0 0 0 2 649 646 
6 3 0 0 0 0 2 651 648 
5 8 0 0 0 0 1 648 
2 3 0 0 0 0 1 650 
9 8 0 0 0 0 1 650 
5 8 0 0 0 0 1 653 
8 5 0 0 0 0 1 653 
5 7 0 0 0 0 1 653 
0 0 0 0 0 0 1 702 
0 0 0 0 0 0 2 655 657 
7 2 0 0 0 0 3 664 663 656 
2 3 0 0 0 0 3 662 661 658 
10 5 0 0 0 0 2 661 660 
7 5 0 0 0 0 1 659 
8 5 0 0 0 0 1 660 
1 2 0 0 0 0 1 665 
8 7 0 0 0 0 1 665 
3 10 0 0 0 0 1 665 
9 6 0 0 0 0 1 665 
6 5 0 0 0 0 1 665 
0 0 0 0 0 0 1 702 
0 0 0 0 0 0 3 667 673 676 
7 0 0 1 0 0 2 672 668 
10 0 0 6 0 0 2 671 669 
2 0 0 8 0 0 1 670 
3 0 0 4 0 0 1 674 
6 0 0 5 0 0 1 675 
6 0 0 9 0 0 1 675 
2 0 0 7 0 0 1 674 
5 0 0 3 0 0 1 677 
10 0 0 5 0 0 1 677 
6 0 0 2 0 0 1 677 
0 0 0 0 0 0 1 702 
0 0 0 0 0 0 4 679 681 687 688 
1 0 0 1 0 0 1 680 
3 0 0 7 0 0 3 686 685 682 
4 0 0 2 0 0 2 685 683 
3 0 0 4 0 0 1 683 
4 0 0 10 0 0 1 684 
7 0 0 5 0 0 1 689 
1 0 0 4 0 0 1 689 
3 0 0 9 0 0 1 689 
6 0 0 7 0 0 1 689 
7 0 0 1 0 0 1 689 
0 0 0 0 0 0 1 702 
0 0 0 0 0 0 2 691 695 
4 1 0 0 0 0 3 696 694 692 
9 6 0 0 0 0 1 693 
7 6 0 0 0 0 3 700 699 697 
7 7 0 0 0 0 3 700 699 697 
1 6 0 0 0 0 2 700 697 
2 5 0 0 0 0 2 699 698 
6 3 0 0 0 0 1 698 
6 3 0 0 0 0 1 701 
9 6 0 0 0 0 1 701 
2 7 0 0 0 0 1 701 
0 0 0 0 0 0 1 702 
0 0 0 0 0 0 0 
